
Gurobi 10.0.1 (linux64) logging started Sun Nov 26 15:37:29 2023

Set parameter LogFile to value "ArtificialInstance/ExperimentV2/S4T3K3/AdRo/gurobi1.txt"
Gurobi Optimizer version 10.0.1 build v10.0.1rc0 (linux64)

CPU model: AMD EPYC 7H12 64-Core Processor, instruction set [SSE2|AVX|AVX2]
Thread count: 128 physical cores, 128 logical processors, using up to 32 threads

Academic license 656792 - for non-commercial use only - registered to b.___@student.vu.nl
Optimize a model with 16074 rows, 15631 columns and 60464 nonzeros
Model fingerprint: 0xa3c7c781
Variable types: 1 continuous, 15630 integer (15630 binary)
Coefficient statistics:
  Matrix range     [1e+00, 4e+01]
  Objective range  [1e+00, 2e+01]
  Bounds range     [1e+00, 1e+00]
  RHS range        [1e+00, 1e+00]
Presolve removed 3450 rows and 3614 columns
Presolve time: 0.26s
Presolved: 12624 rows, 12017 columns, 47487 nonzeros
Variable types: 1 continuous, 12016 integer (12016 binary)

Root relaxation: objective 6.709476e+01, 14035 iterations, 1.48 seconds (0.99 work units)

    Nodes    |    Current Node    |     Objective Bounds      |     Work
 Expl Unexpl |  Obj  Depth IntInf | Incumbent    BestBd   Gap | It/Node Time

     0     0   67.09476    0  837          -   67.09476      -     -    2s
H    0     0                     108.0199395   67.09476  37.9%     -    2s
H    0     0                      68.3471120   67.09476  1.83%     -    2s
     0     0   67.56441    0 1043   68.34711   67.56441  1.15%     -    3s
     0     0   67.56441    0  104   68.34711   67.56441  1.15%     -    3s
     0     0   67.75364    0   65   68.34711   67.75364  0.87%     -    3s
     0     0   67.75364    0   60   68.34711   67.75364  0.87%     -    3s
H    0     0                      68.2013317   67.75364  0.66%     -    3s

Cutting planes:
  Gomory: 2
  MIR: 1
  GUB cover: 1

Explored 1 nodes (24224 simplex iterations) in 3.71 seconds (2.45 work units)
Thread count was 32 (of 128 available processors)

Solution count 3: 68.2013 68.3471 108.02 

Optimal solution found (tolerance 1.00e-04)
Best objective 6.820133171192e+01, best bound 6.820133171192e+01, gap 0.0000%
